(set-info :source |printed by MathSAT|)
(declare-fun A_23 () Int)
(declare-fun .x.765 () Int)
(declare-fun B_23 () (Array Int Int))
(declare-fun .x.766 () (Array Int Int))
(declare-fun C_23 () (Array Int Int))
(declare-fun .x.767 () (Array Int Int))
(declare-fun D_23 () (Array Int (Array Int Int)))
(declare-fun .x.768 () (Array Int (Array Int Int)))
(declare-fun E_23 () (Array Int (Array Int Int)))
(declare-fun .x.769 () (Array Int (Array Int Int)))
(declare-fun F_23 () Int)
(declare-fun .x.770 () Int)
(declare-fun G_23 () Int)
(declare-fun .x.771 () Int)
(declare-fun H_23 () (Array Int Int))
(declare-fun .x.772 () (Array Int Int))
(declare-fun I_23 () (Array Int Int))
(declare-fun .x.773 () (Array Int Int))
(declare-fun J_23 () Int)
(declare-fun .x.774 () Int)
(declare-fun K_23 () Int)
(declare-fun .x.775 () Int)
(declare-fun L_23 () Int)
(declare-fun .x.776 () Int)
(declare-fun M_23 () Int)
(declare-fun .x.777 () Int)
(declare-fun N_23 () Int)
(declare-fun .x.778 () Int)
(declare-fun O_23 () Int)
(declare-fun .x.779 () Int)
(declare-fun P_23 () Int)
(declare-fun .x.780 () Int)
(declare-fun Q_23 () Int)
(declare-fun .x.781 () Int)
(declare-fun R_23 () Int)
(declare-fun .x.782 () Int)
(declare-fun S_23 () Int)
(declare-fun .x.783 () Int)
(declare-fun T_23 () Int)
(declare-fun .x.784 () Int)
(declare-fun U_23 () Int)
(declare-fun .x.785 () Int)
(declare-fun V_23 () Int)
(declare-fun .x.786 () Int)
(declare-fun W_23 () Int)
(declare-fun .x.787 () Int)
(declare-fun X_23 () Int)
(declare-fun .x.788 () Int)
(declare-fun Y_23 () Int)
(declare-fun .x.789 () Int)
(declare-fun Z_23 () Int)
(declare-fun .x.790 () Int)
(declare-fun A1_23 () Int)
(declare-fun .x.791 () Int)
(declare-fun B1_23 () Int)
(declare-fun .x.792 () Int)
(declare-fun C1_23 () Int)
(declare-fun .x.793 () Int)
(declare-fun D1_23 () Int)
(declare-fun .x.794 () Int)
(declare-fun E1_23 () Int)
(declare-fun .x.795 () Int)
(declare-fun F1_23 () Int)
(declare-fun .x.796 () Int)
(declare-fun G1_23 () Int)
(declare-fun .x.797 () Int)
(declare-fun I1_13 () Bool)
(declare-fun H1_23 () Bool)
(declare-fun .loc.5 () Bool)
(declare-fun .loc.9 () Bool)
(declare-fun .loc.6 () Bool)
(declare-fun .loc.10 () Bool)
(declare-fun .loc.7 () Bool)
(declare-fun .loc.11 () Bool)
(declare-fun .loc.8 () Bool)
(declare-fun .loc.12 () Bool)
(declare-fun I1_0 () (Array Int Int))
(define-fun .def_8 () Int (! A_23 :next |.x.765|))
(define-fun .def_10 () (Array Int Int) (! B_23 :next |.x.766|))
(define-fun .def_12 () (Array Int Int) (! C_23 :next |.x.767|))
(define-fun .def_14 () (Array Int (Array Int Int)) (! D_23 :next |.x.768|))
(define-fun .def_16 () (Array Int (Array Int Int)) (! E_23 :next |.x.769|))
(define-fun .def_18 () Int (! F_23 :next |.x.770|))
(define-fun .def_20 () Int (! G_23 :next |.x.771|))
(define-fun .def_22 () (Array Int Int) (! H_23 :next |.x.772|))
(define-fun .def_24 () (Array Int Int) (! I_23 :next |.x.773|))
(define-fun .def_26 () Int (! J_23 :next |.x.774|))
(define-fun .def_28 () Int (! K_23 :next |.x.775|))
(define-fun .def_30 () Int (! L_23 :next |.x.776|))
(define-fun .def_32 () Int (! M_23 :next |.x.777|))
(define-fun .def_34 () Int (! N_23 :next |.x.778|))
(define-fun .def_36 () Int (! O_23 :next |.x.779|))
(define-fun .def_38 () Int (! P_23 :next |.x.780|))
(define-fun .def_40 () Int (! Q_23 :next |.x.781|))
(define-fun .def_42 () Int (! R_23 :next |.x.782|))
(define-fun .def_44 () Int (! S_23 :next |.x.783|))
(define-fun .def_46 () Int (! T_23 :next |.x.784|))
(define-fun .def_48 () Int (! U_23 :next |.x.785|))
(define-fun .def_50 () Int (! V_23 :next |.x.786|))
(define-fun .def_52 () Int (! W_23 :next |.x.787|))
(define-fun .def_54 () Int (! X_23 :next |.x.788|))
(define-fun .def_56 () Int (! Y_23 :next |.x.789|))
(define-fun .def_58 () Int (! Z_23 :next |.x.790|))
(define-fun .def_60 () Int (! A1_23 :next |.x.791|))
(define-fun .def_62 () Int (! B1_23 :next |.x.792|))
(define-fun .def_64 () Int (! C1_23 :next |.x.793|))
(define-fun .def_66 () Int (! D1_23 :next |.x.794|))
(define-fun .def_68 () Int (! E1_23 :next |.x.795|))
(define-fun .def_70 () Int (! F1_23 :next |.x.796|))
(define-fun .def_72 () Int (! G1_23 :next |.x.797|))
(define-fun .def_74 () Bool (! I1_13 :next |H1_23|))
(define-fun .def_76 () Bool (! .loc.5 :next |.loc.9|))
(define-fun .def_78 () Bool (! .loc.6 :next |.loc.10|))
(define-fun .def_80 () Bool (! .loc.7 :next |.loc.11|))
(define-fun .def_82 () Bool (! .loc.8 :next |.loc.12|))
(define-fun .def_108 () (Array Int Int) (! I1_0 :next |.xtv.1|))
(define-fun .def_101 () Bool (not .def_78))
(define-fun .def_707 () Bool (and .def_76 .def_101))
(define-fun .def_92 () Bool (not .def_80))
(define-fun .def_708 () Bool (and .def_92 .def_707))
(define-fun .def_103 () Bool (not .def_82))
(define-fun .def_709 () Bool (and .def_103 .def_708))
(define-fun .def_701 () Bool (= .def_14 .def_16))
(define-fun .def_700 () Bool (not .def_74))
(define-fun .def_702 () Bool (and .def_700 .def_701))
(define-fun .def_699 () Bool (= .def_26 .def_28))
(define-fun .def_703 () Bool (and .def_699 .def_702))
(define-fun .def_698 () Bool (= .def_18 .def_20))
(define-fun .def_704 () Bool (and .def_698 .def_703))
(define-fun .def_697 () Bool (= .def_22 .def_24))
(define-fun .def_705 () Bool (and .def_697 .def_704))
(define-fun .def_696 () Bool (= .def_10 .def_12))
(define-fun .def_706 () Bool (and .def_696 .def_705))
(define-fun .def_710 () Bool (! (and .def_706 .def_709) :init true))
(define-fun .def_693 () Bool (= .def_28 .x.775))
(define-fun .def_691 () Bool (= .def_24 .x.773))
(define-fun .def_689 () Bool (= .def_20 .x.771))
(define-fun .def_687 () Bool (= .def_16 .x.769))
(define-fun .def_685 () Bool (= .def_8 .x.765))
(define-fun .def_684 () Bool (= .def_12 .x.767))
(define-fun .def_686 () Bool (and .def_684 .def_685))
(define-fun .def_688 () Bool (and .def_686 .def_687))
(define-fun .def_690 () Bool (and .def_688 .def_689))
(define-fun .def_692 () Bool (and .def_690 .def_691))
(define-fun .def_694 () Bool (and .def_692 .def_693))
(define-fun .def_171 () Bool (= .def_10 .x.766))
(define-fun .def_644 () Bool (and H1_23 .def_171))
(define-fun .def_170 () Bool (= .def_32 .x.777))
(define-fun .def_645 () Bool (and .def_170 .def_644))
(define-fun .def_173 () Bool (= .def_34 .x.778))
(define-fun .def_646 () Bool (and .def_173 .def_645))
(define-fun .def_87 () Bool (= .def_44 .x.783))
(define-fun .def_647 () Bool (and .def_87 .def_646))
(define-fun .def_183 () Bool (= .def_50 .x.786))
(define-fun .def_648 () Bool (and .def_183 .def_647))
(define-fun .def_189 () Bool (= .def_56 .x.789))
(define-fun .def_649 () Bool (and .def_189 .def_648))
(define-fun .def_195 () Bool (= .def_62 .x.792))
(define-fun .def_650 () Bool (and .def_195 .def_649))
(define-fun .def_197 () Bool (= .def_64 .x.793))
(define-fun .def_651 () Bool (and .def_197 .def_650))
(define-fun .def_199 () Bool (= .def_66 .x.794))
(define-fun .def_652 () Bool (and .def_199 .def_651))
(define-fun .def_207 () Bool (not .def_76))
(define-fun .def_653 () Bool (and .def_207 .def_652))
(define-fun .def_637 () (Array Int Int) (store .def_10 .def_50 0))
(define-fun .def_638 () (Array Int Int) (store .def_637 .def_64 0))
(define-fun .def_639 () (Array Int Int) (store .def_638 .def_34 0))
(define-fun .def_640 () Bool (= .x.766 .def_639))
(define-fun .def_636 () Bool (= .x.794 0))
(define-fun .def_641 () Bool (and .def_636 .def_640))
(define-fun .def_642 () Bool (or .def_74 .def_641))
(define-fun .def_632 () Bool (= .x.783 .x.794))
(define-fun .def_633 () Bool (or H1_23 .def_632))
(define-fun .def_634 () Bool (and .def_76 .def_633))
(define-fun .def_97 () Bool (= .def_74 H1_23))
(define-fun .def_635 () Bool (and .def_97 .def_634))
(define-fun .def_643 () Bool (and .def_635 .def_642))
(define-fun .def_654 () Bool (or .def_643 .def_653))
(define-fun .def_630 () Bool (and .def_78 .loc.11))
(define-fun .def_327 () Bool (not .loc.10))
(define-fun .def_631 () Bool (and .def_327 .def_630))
(define-fun .def_655 () Bool (and .def_631 .def_654))
(define-fun .def_466 () Bool (= .def_38 0))
(define-fun .def_628 () Bool (or .def_74 .def_466))
(define-fun .def_172 () Bool (and .def_170 .def_171))
(define-fun .def_174 () Bool (and .def_172 .def_173))
(define-fun .def_587 () Bool (and .def_87 .def_174))
(define-fun .def_588 () Bool (and .def_183 .def_587))
(define-fun .def_589 () Bool (and .def_189 .def_588))
(define-fun .def_590 () Bool (and .def_195 .def_589))
(define-fun .def_591 () Bool (and .def_197 .def_590))
(define-fun .def_592 () Bool (and .def_199 .def_591))
(define-fun .def_623 () Bool (and .def_76 .def_592))
(define-fun .def_624 () Bool (and .loc.10 .def_623))
(define-fun .def_625 () Bool (and .def_97 .def_624))
(define-fun .def_99 () Bool (not .loc.11))
(define-fun .def_626 () Bool (and .def_99 .def_625))
(define-fun .def_627 () Bool (and .def_101 .def_626))
(define-fun .def_629 () Bool (and .def_627 .def_628))
(define-fun .def_656 () Bool (or .def_629 .def_655))
(define-fun .def_191 () Bool (= .def_58 .x.790))
(define-fun .def_84 () Bool (= .def_38 .x.780))
(define-fun .def_619 () Bool (and .def_84 .def_191))
(define-fun .def_193 () Bool (= .def_60 .x.791))
(define-fun .def_620 () Bool (and .def_193 .def_619))
(define-fun .def_89 () Bool (= .def_68 .x.795))
(define-fun .def_621 () Bool (and .def_89 .def_620))
(define-fun .def_95 () Bool (not .loc.9))
(define-fun .def_622 () Bool (and .def_95 .def_621))
(define-fun .def_657 () Bool (and .def_622 .def_656))
(define-fun .def_604 () Int (* 4 .def_52))
(define-fun .def_613 () Int (+ .def_604 .def_62))
(define-fun .def_489 () (Array Int Int) (select .def_14 .def_34))
(define-fun .def_614 () Int (select .def_489 .def_613))
(define-fun .def_615 () Bool (= .x.790 .def_614))
(define-fun .def_610 () Bool (= .x.780 .x.795))
(define-fun .def_606 () Int (+ .def_604 .def_56))
(define-fun .def_234 () (Array Int Int) (select .def_14 .def_50))
(define-fun .def_607 () Int (select .def_234 .def_606))
(define-fun .def_608 () Bool (= .x.791 .def_607))
(define-fun .def_538 () Bool (<= 100000 .def_52))
(define-fun .def_602 () Bool (not .def_538))
(define-fun .def_599 () Bool (= .x.790 .x.791))
(define-fun .def_600 () Int (ite .def_599 1 0))
(define-fun .def_601 () Bool (= .x.795 .def_600))
(define-fun .def_603 () Bool (and .def_601 .def_602))
(define-fun .def_609 () Bool (and .def_603 .def_608))
(define-fun .def_611 () Bool (and .def_609 .def_610))
(define-fun .def_616 () Bool (and .def_611 .def_615))
(define-fun .def_617 () Bool (or .def_74 .def_616))
(define-fun .def_593 () Bool (and .def_207 .def_592))
(define-fun .def_594 () Bool (and .loc.9 .def_593))
(define-fun .def_595 () Bool (and .def_327 .def_594))
(define-fun .def_596 () Bool (and .def_97 .def_595))
(define-fun .def_597 () Bool (and .def_99 .def_596))
(define-fun .def_598 () Bool (and .def_101 .def_597))
(define-fun .def_618 () Bool (and .def_598 .def_617))
(define-fun .def_658 () Bool (or .def_618 .def_657))
(define-fun .def_185 () Bool (= .def_52 .x.787))
(define-fun .def_181 () Bool (= .def_48 .x.785))
(define-fun .def_585 () Bool (and .def_181 .def_185))
(define-fun .def_586 () Bool (and .def_82 .def_585))
(define-fun .def_659 () Bool (and .def_586 .def_658))
(define-fun .def_580 () Int (* (- 1) .x.787))
(define-fun .def_581 () Int (+ .def_52 .def_580))
(define-fun .def_582 () Bool (= .def_581 (- 1)))
(define-fun .def_583 () Bool (or H1_23 .def_582))
(define-fun .def_175 () Bool (and .def_84 .def_174))
(define-fun .def_335 () Bool (and .def_87 .def_175))
(define-fun .def_567 () Bool (and .def_183 .def_335))
(define-fun .def_568 () Bool (and .def_189 .def_567))
(define-fun .def_569 () Bool (and .def_195 .def_568))
(define-fun .def_570 () Bool (and .def_197 .def_569))
(define-fun .def_571 () Bool (and .def_199 .def_570))
(define-fun .def_572 () Bool (and .def_89 .def_571))
(define-fun .def_573 () Bool (and .def_207 .def_572))
(define-fun .def_574 () Bool (and .def_95 .def_573))
(define-fun .def_575 () Bool (and .def_327 .def_574))
(define-fun .def_576 () Bool (and .def_97 .def_575))
(define-fun .def_577 () Bool (and .def_99 .def_576))
(define-fun .def_578 () Bool (and .def_101 .def_577))
(define-fun .def_579 () Bool (and .def_103 .def_578))
(define-fun .def_584 () Bool (and .def_579 .def_583))
(define-fun .def_660 () Bool (or .def_584 .def_659))
(define-fun .def_661 () Bool (and .def_92 .def_660))
(define-fun .def_564 () Bool (= .x.787 0))
(define-fun .def_565 () Bool (or .def_74 .def_564))
(define-fun .def_336 () Bool (and .def_181 .def_335))
(define-fun .def_337 () Bool (and .def_183 .def_336))
(define-fun .def_549 () Bool (and .def_189 .def_337))
(define-fun .def_550 () Bool (and .def_191 .def_549))
(define-fun .def_551 () Bool (and .def_193 .def_550))
(define-fun .def_552 () Bool (and .def_195 .def_551))
(define-fun .def_553 () Bool (and .def_197 .def_552))
(define-fun .def_554 () Bool (and .def_199 .def_553))
(define-fun .def_555 () Bool (and .def_89 .def_554))
(define-fun .def_556 () Bool (and .def_76 .def_555))
(define-fun .def_557 () Bool (and .def_78 .def_556))
(define-fun .def_558 () Bool (and .def_80 .def_557))
(define-fun .def_559 () Bool (and .def_95 .def_558))
(define-fun .def_560 () Bool (and .def_327 .def_559))
(define-fun .def_561 () Bool (and .def_97 .def_560))
(define-fun .def_562 () Bool (and .def_99 .def_561))
(define-fun .def_563 () Bool (and .def_103 .def_562))
(define-fun .def_566 () Bool (and .def_563 .def_565))
(define-fun .def_662 () Bool (or .def_566 .def_661))
(define-fun .def_278 () Bool (and .def_74 .def_171))
(define-fun .def_507 () Bool (and .def_170 .def_278))
(define-fun .def_508 () Bool (and .def_173 .def_507))
(define-fun .def_509 () Bool (and .def_84 .def_508))
(define-fun .def_510 () Bool (and .def_87 .def_509))
(define-fun .def_511 () Bool (and .def_181 .def_510))
(define-fun .def_512 () Bool (and .def_183 .def_511))
(define-fun .def_513 () Bool (and .def_185 .def_512))
(define-fun .def_514 () Bool (and .def_189 .def_513))
(define-fun .def_515 () Bool (and .def_191 .def_514))
(define-fun .def_516 () Bool (and .def_193 .def_515))
(define-fun .def_517 () Bool (and .def_195 .def_516))
(define-fun .def_518 () Bool (and .def_197 .def_517))
(define-fun .def_519 () Bool (and .def_199 .def_518))
(define-fun .def_520 () Bool (and .def_89 .def_519))
(define-fun .def_541 () Bool (and .def_82 .def_520))
(define-fun .def_542 () Bool (and .def_207 .def_541))
(define-fun .def_543 () Bool (and .def_92 .def_542))
(define-fun .def_544 () Bool (and .loc.9 .def_543))
(define-fun .def_545 () Bool (and .loc.10 .def_544))
(define-fun .def_546 () Bool (and .def_97 .def_545))
(define-fun .def_547 () Bool (and .def_99 .def_546))
(define-fun .def_548 () Bool (and .def_101 .def_547))
(define-fun .def_663 () Bool (or .def_548 .def_662))
(define-fun .def_539 () Bool (or .def_74 .def_538))
(define-fun .def_338 () Bool (and .def_185 .def_337))
(define-fun .def_470 () Bool (and .def_189 .def_338))
(define-fun .def_471 () Bool (and .def_191 .def_470))
(define-fun .def_472 () Bool (and .def_193 .def_471))
(define-fun .def_473 () Bool (and .def_195 .def_472))
(define-fun .def_474 () Bool (and .def_197 .def_473))
(define-fun .def_475 () Bool (and .def_199 .def_474))
(define-fun .def_476 () Bool (and .def_89 .def_475))
(define-fun .def_530 () Bool (and .def_82 .def_476))
(define-fun .def_531 () Bool (and .def_207 .def_530))
(define-fun .def_532 () Bool (and .def_92 .def_531))
(define-fun .def_533 () Bool (and .loc.9 .def_532))
(define-fun .def_534 () Bool (and .loc.10 .def_533))
(define-fun .def_535 () Bool (and .def_97 .def_534))
(define-fun .def_536 () Bool (and .def_99 .def_535))
(define-fun .def_537 () Bool (and .def_101 .def_536))
(define-fun .def_540 () Bool (and .def_537 .def_539))
(define-fun .def_664 () Bool (or .def_540 .def_663))
(define-fun .def_665 () Bool (and .loc.12 .def_664))
(define-fun .def_521 () Bool (and .def_78 .def_520))
(define-fun .def_522 () Bool (and .def_80 .def_521))
(define-fun .def_523 () Bool (and .def_207 .def_522))
(define-fun .def_524 () Bool (and .loc.9 .def_523))
(define-fun .def_525 () Bool (and .loc.10 .def_524))
(define-fun .def_526 () Bool (and .loc.11 .def_525))
(define-fun .def_527 () Bool (and .def_97 .def_526))
(define-fun .def_528 () Bool (and .def_103 .def_527))
(define-fun .def_105 () Bool (not .loc.12))
(define-fun .def_529 () Bool (and .def_105 .def_528))
(define-fun .def_666 () Bool (or .def_529 .def_665))
(define-fun .def_477 () Bool (and .def_78 .def_476))
(define-fun .def_478 () Bool (and .def_80 .def_477))
(define-fun .def_479 () Bool (and .def_207 .def_478))
(define-fun .def_500 () Bool (and .loc.9 .def_479))
(define-fun .def_501 () Bool (and .loc.10 .def_500))
(define-fun .def_502 () Bool (and .loc.11 .def_501))
(define-fun .def_503 () Bool (and .def_97 .def_502))
(define-fun .def_504 () Bool (and .def_103 .def_503))
(define-fun .def_505 () Bool (and .def_105 .def_504))
(define-fun .def_371 () Bool (<= 100000 .def_42))
(define-fun .def_400 () Bool (or .def_74 .def_371))
(define-fun .def_506 () Bool (and .def_400 .def_505))
(define-fun .def_667 () Bool (or .def_506 .def_666))
(define-fun .def_178 () Bool (= .def_42 .x.782))
(define-fun .def_85 () Bool (= .def_14 .x.768))
(define-fun .def_497 () Bool (and .def_85 .def_178))
(define-fun .def_187 () Bool (= .def_54 .x.788))
(define-fun .def_498 () Bool (and .def_187 .def_497))
(define-fun .def_202 () Bool (= .def_70 .x.796))
(define-fun .def_499 () Bool (and .def_202 .def_498))
(define-fun .def_668 () Bool (and .def_499 .def_667))
(define-fun .def_362 () Int (* 4 .def_42))
(define-fun .def_366 () Int (+ .def_32 .def_362))
(define-fun .def_367 () (Array Int Int) (select .def_14 .def_64))
(define-fun .def_487 () Int (select .def_367 .def_366))
(define-fun .def_490 () Int (+ .def_362 .def_62))
(define-fun .def_491 () (Array Int Int) (store .def_489 .def_490 .def_487))
(define-fun .def_492 () (Array Int (Array Int Int)) (store .def_14 .def_34 .def_491))
(define-fun .def_493 () Bool (= .x.768 .def_492))
(define-fun .def_372 () Bool (not .def_371))
(define-fun .def_494 () Bool (and .def_372 .def_493))
(define-fun .def_495 () Bool (or .def_74 .def_494))
(define-fun .def_480 () Bool (and .loc.10 .def_479))
(define-fun .def_481 () Bool (and .loc.11 .def_480))
(define-fun .def_482 () Bool (and .def_95 .def_481))
(define-fun .def_483 () Bool (and .def_97 .def_482))
(define-fun .def_484 () Bool (and .def_103 .def_483))
(define-fun .def_485 () Bool (and .def_105 .def_484))
(define-fun .def_357 () Int (* (- 1) .x.782))
(define-fun .def_358 () Int (+ .def_42 .def_357))
(define-fun .def_359 () Bool (= .def_358 (- 1)))
(define-fun .def_360 () Bool (or H1_23 .def_359))
(define-fun .def_486 () Bool (and .def_360 .def_485))
(define-fun .def_496 () Bool (and .def_486 .def_495))
(define-fun .def_669 () Bool (or .def_496 .def_668))
(define-fun .def_467 () Bool (not .def_466))
(define-fun .def_468 () Bool (or .def_74 .def_467))
(define-fun .def_247 () Bool (and .def_85 .def_171))
(define-fun .def_248 () Bool (and .def_170 .def_247))
(define-fun .def_249 () Bool (and .def_173 .def_248))
(define-fun .def_250 () Bool (and .def_84 .def_249))
(define-fun .def_377 () Bool (and .def_178 .def_250))
(define-fun .def_378 () Bool (and .def_87 .def_377))
(define-fun .def_379 () Bool (and .def_181 .def_378))
(define-fun .def_380 () Bool (and .def_183 .def_379))
(define-fun .def_381 () Bool (and .def_185 .def_380))
(define-fun .def_382 () Bool (and .def_187 .def_381))
(define-fun .def_383 () Bool (and .def_189 .def_382))
(define-fun .def_384 () Bool (and .def_191 .def_383))
(define-fun .def_385 () Bool (and .def_193 .def_384))
(define-fun .def_386 () Bool (and .def_195 .def_385))
(define-fun .def_387 () Bool (and .def_197 .def_386))
(define-fun .def_388 () Bool (and .def_199 .def_387))
(define-fun .def_389 () Bool (and .def_89 .def_388))
(define-fun .def_390 () Bool (and .def_202 .def_389))
(define-fun .def_457 () Bool (and .def_76 .def_390))
(define-fun .def_458 () Bool (and .def_82 .def_457))
(define-fun .def_459 () Bool (and .def_92 .def_458))
(define-fun .def_460 () Bool (and .def_95 .def_459))
(define-fun .def_461 () Bool (and .def_327 .def_460))
(define-fun .def_462 () Bool (and .def_97 .def_461))
(define-fun .def_463 () Bool (and .def_99 .def_462))
(define-fun .def_464 () Bool (and .def_101 .def_463))
(define-fun .def_465 () Bool (and .def_105 .def_464))
(define-fun .def_469 () Bool (and .def_465 .def_468))
(define-fun .def_670 () Bool (or .def_469 .def_669))
(define-fun .def_279 () Bool (and .def_85 .def_278))
(define-fun .def_280 () Bool (and .def_170 .def_279))
(define-fun .def_281 () Bool (and .def_173 .def_280))
(define-fun .def_282 () Bool (and .def_84 .def_281))
(define-fun .def_402 () Bool (and .def_178 .def_282))
(define-fun .def_403 () Bool (and .def_87 .def_402))
(define-fun .def_404 () Bool (and .def_181 .def_403))
(define-fun .def_405 () Bool (and .def_183 .def_404))
(define-fun .def_406 () Bool (and .def_185 .def_405))
(define-fun .def_407 () Bool (and .def_187 .def_406))
(define-fun .def_408 () Bool (and .def_189 .def_407))
(define-fun .def_409 () Bool (and .def_191 .def_408))
(define-fun .def_410 () Bool (and .def_193 .def_409))
(define-fun .def_411 () Bool (and .def_195 .def_410))
(define-fun .def_412 () Bool (and .def_197 .def_411))
(define-fun .def_413 () Bool (and .def_199 .def_412))
(define-fun .def_414 () Bool (and .def_89 .def_413))
(define-fun .def_415 () Bool (and .def_202 .def_414))
(define-fun .def_448 () Bool (and .def_78 .def_415))
(define-fun .def_449 () Bool (and .def_82 .def_448))
(define-fun .def_450 () Bool (and .def_207 .def_449))
(define-fun .def_451 () Bool (and .def_92 .def_450))
(define-fun .def_452 () Bool (and .def_95 .def_451))
(define-fun .def_453 () Bool (and .def_327 .def_452))
(define-fun .def_454 () Bool (and .def_97 .def_453))
(define-fun .def_455 () Bool (and .def_99 .def_454))
(define-fun .def_456 () Bool (and .def_105 .def_455))
(define-fun .def_671 () Bool (or .def_456 .def_670))
(define-fun .def_425 () Bool (and .def_87 .def_250))
(define-fun .def_426 () Bool (and .def_181 .def_425))
(define-fun .def_427 () Bool (and .def_183 .def_426))
(define-fun .def_428 () Bool (and .def_185 .def_427))
(define-fun .def_429 () Bool (and .def_187 .def_428))
(define-fun .def_430 () Bool (and .def_189 .def_429))
(define-fun .def_431 () Bool (and .def_191 .def_430))
(define-fun .def_432 () Bool (and .def_193 .def_431))
(define-fun .def_433 () Bool (and .def_195 .def_432))
(define-fun .def_434 () Bool (and .def_197 .def_433))
(define-fun .def_435 () Bool (and .def_199 .def_434))
(define-fun .def_436 () Bool (and .def_89 .def_435))
(define-fun .def_437 () Bool (and .def_202 .def_436))
(define-fun .def_438 () Bool (and .def_76 .def_437))
(define-fun .def_439 () Bool (and .def_80 .def_438))
(define-fun .def_440 () Bool (and .loc.10 .def_439))
(define-fun .def_441 () Bool (and .loc.11 .def_440))
(define-fun .def_442 () Bool (and .def_95 .def_441))
(define-fun .def_443 () Bool (and .def_97 .def_442))
(define-fun .def_444 () Bool (and .def_101 .def_443))
(define-fun .def_445 () Bool (and .def_103 .def_444))
(define-fun .def_446 () Bool (and .def_105 .def_445))
(define-fun .def_332 () Bool (= .x.782 0))
(define-fun .def_333 () Bool (or .def_74 .def_332))
(define-fun .def_447 () Bool (and .def_333 .def_446))
(define-fun .def_672 () Bool (or .def_447 .def_671))
(define-fun .def_416 () Bool (and .def_80 .def_415))
(define-fun .def_417 () Bool (and .def_207 .def_416))
(define-fun .def_418 () Bool (and .loc.9 .def_417))
(define-fun .def_419 () Bool (and .loc.11 .def_418))
(define-fun .def_420 () Bool (and .def_327 .def_419))
(define-fun .def_421 () Bool (and .def_97 .def_420))
(define-fun .def_422 () Bool (and .def_101 .def_421))
(define-fun .def_423 () Bool (and .def_103 .def_422))
(define-fun .def_424 () Bool (and .def_105 .def_423))
(define-fun .def_673 () Bool (or .def_424 .def_672))
(define-fun .def_391 () Bool (and .def_80 .def_390))
(define-fun .def_392 () Bool (and .def_207 .def_391))
(define-fun .def_393 () Bool (and .loc.9 .def_392))
(define-fun .def_394 () Bool (and .loc.11 .def_393))
(define-fun .def_395 () Bool (and .def_327 .def_394))
(define-fun .def_396 () Bool (and .def_97 .def_395))
(define-fun .def_397 () Bool (and .def_101 .def_396))
(define-fun .def_398 () Bool (and .def_103 .def_397))
(define-fun .def_399 () Bool (and .def_105 .def_398))
(define-fun .def_401 () Bool (and .def_399 .def_400))
(define-fun .def_674 () Bool (or .def_401 .def_673))
(define-fun .def_204 () Bool (= .def_72 .x.797))
(define-fun .def_176 () Bool (= .def_40 .x.781))
(define-fun .def_376 () Bool (and .def_176 .def_204))
(define-fun .def_675 () Bool (and .def_376 .def_674))
(define-fun .def_364 () Int (+ .def_362 .def_56))
(define-fun .def_365 () Int (select .def_234 .def_364))
(define-fun .def_368 () (Array Int Int) (store .def_367 .def_366 .def_365))
(define-fun .def_369 () (Array Int (Array Int Int)) (store .def_14 .def_64 .def_368))
(define-fun .def_370 () Bool (= .x.768 .def_369))
(define-fun .def_373 () Bool (and .def_370 .def_372))
(define-fun .def_374 () Bool (or .def_74 .def_373))
(define-fun .def_339 () Bool (and .def_187 .def_338))
(define-fun .def_340 () Bool (and .def_189 .def_339))
(define-fun .def_341 () Bool (and .def_191 .def_340))
(define-fun .def_342 () Bool (and .def_193 .def_341))
(define-fun .def_343 () Bool (and .def_195 .def_342))
(define-fun .def_344 () Bool (and .def_197 .def_343))
(define-fun .def_345 () Bool (and .def_199 .def_344))
(define-fun .def_346 () Bool (and .def_89 .def_345))
(define-fun .def_347 () Bool (and .def_202 .def_346))
(define-fun .def_348 () Bool (and .def_80 .def_347))
(define-fun .def_349 () Bool (and .def_207 .def_348))
(define-fun .def_350 () Bool (and .loc.11 .def_349))
(define-fun .def_351 () Bool (and .def_95 .def_350))
(define-fun .def_352 () Bool (and .def_327 .def_351))
(define-fun .def_353 () Bool (and .def_97 .def_352))
(define-fun .def_354 () Bool (and .def_101 .def_353))
(define-fun .def_355 () Bool (and .def_103 .def_354))
(define-fun .def_356 () Bool (and .def_105 .def_355))
(define-fun .def_361 () Bool (and .def_356 .def_360))
(define-fun .def_375 () Bool (and .def_361 .def_374))
(define-fun .def_676 () Bool (or .def_375 .def_675))
(define-fun .def_251 () Bool (and .def_176 .def_250))
(define-fun .def_308 () Bool (and .def_87 .def_251))
(define-fun .def_309 () Bool (and .def_181 .def_308))
(define-fun .def_310 () Bool (and .def_183 .def_309))
(define-fun .def_311 () Bool (and .def_185 .def_310))
(define-fun .def_312 () Bool (and .def_187 .def_311))
(define-fun .def_313 () Bool (and .def_189 .def_312))
(define-fun .def_314 () Bool (and .def_191 .def_313))
(define-fun .def_315 () Bool (and .def_193 .def_314))
(define-fun .def_316 () Bool (and .def_195 .def_315))
(define-fun .def_317 () Bool (and .def_197 .def_316))
(define-fun .def_318 () Bool (and .def_199 .def_317))
(define-fun .def_319 () Bool (and .def_89 .def_318))
(define-fun .def_320 () Bool (and .def_202 .def_319))
(define-fun .def_321 () Bool (and .def_204 .def_320))
(define-fun .def_322 () Bool (and .def_76 .def_321))
(define-fun .def_323 () Bool (and .def_78 .def_322))
(define-fun .def_324 () Bool (and .def_92 .def_323))
(define-fun .def_325 () Bool (and .loc.11 .def_324))
(define-fun .def_326 () Bool (and .def_95 .def_325))
(define-fun .def_328 () Bool (and .def_326 .def_327))
(define-fun .def_329 () Bool (and .def_97 .def_328))
(define-fun .def_330 () Bool (and .def_103 .def_329))
(define-fun .def_331 () Bool (and .def_105 .def_330))
(define-fun .def_334 () Bool (and .def_331 .def_333))
(define-fun .def_677 () Bool (or .def_334 .def_676))
(define-fun .def_283 () Bool (and .def_176 .def_282))
(define-fun .def_284 () Bool (and .def_178 .def_283))
(define-fun .def_285 () Bool (and .def_87 .def_284))
(define-fun .def_286 () Bool (and .def_181 .def_285))
(define-fun .def_287 () Bool (and .def_183 .def_286))
(define-fun .def_288 () Bool (and .def_185 .def_287))
(define-fun .def_289 () Bool (and .def_187 .def_288))
(define-fun .def_290 () Bool (and .def_189 .def_289))
(define-fun .def_291 () Bool (and .def_191 .def_290))
(define-fun .def_292 () Bool (and .def_193 .def_291))
(define-fun .def_293 () Bool (and .def_195 .def_292))
(define-fun .def_294 () Bool (and .def_197 .def_293))
(define-fun .def_295 () Bool (and .def_199 .def_294))
(define-fun .def_296 () Bool (and .def_89 .def_295))
(define-fun .def_297 () Bool (and .def_202 .def_296))
(define-fun .def_298 () Bool (and .def_204 .def_297))
(define-fun .def_299 () Bool (and .def_78 .def_298))
(define-fun .def_300 () Bool (and .def_207 .def_299))
(define-fun .def_301 () Bool (and .def_92 .def_300))
(define-fun .def_302 () Bool (and .loc.9 .def_301))
(define-fun .def_303 () Bool (and .loc.10 .def_302))
(define-fun .def_304 () Bool (and .def_97 .def_303))
(define-fun .def_305 () Bool (and .def_99 .def_304))
(define-fun .def_306 () Bool (and .def_103 .def_305))
(define-fun .def_307 () Bool (and .def_105 .def_306))
(define-fun .def_678 () Bool (or .def_307 .def_677))
(define-fun .def_223 () Bool (<= 100000 .def_36))
(define-fun .def_276 () Bool (or .def_74 .def_223))
(define-fun .def_252 () Bool (and .def_178 .def_251))
(define-fun .def_253 () Bool (and .def_87 .def_252))
(define-fun .def_254 () Bool (and .def_181 .def_253))
(define-fun .def_255 () Bool (and .def_183 .def_254))
(define-fun .def_256 () Bool (and .def_185 .def_255))
(define-fun .def_257 () Bool (and .def_187 .def_256))
(define-fun .def_258 () Bool (and .def_189 .def_257))
(define-fun .def_259 () Bool (and .def_191 .def_258))
(define-fun .def_260 () Bool (and .def_193 .def_259))
(define-fun .def_261 () Bool (and .def_195 .def_260))
(define-fun .def_262 () Bool (and .def_197 .def_261))
(define-fun .def_263 () Bool (and .def_199 .def_262))
(define-fun .def_264 () Bool (and .def_89 .def_263))
(define-fun .def_265 () Bool (and .def_202 .def_264))
(define-fun .def_266 () Bool (and .def_204 .def_265))
(define-fun .def_267 () Bool (and .def_78 .def_266))
(define-fun .def_268 () Bool (and .def_207 .def_267))
(define-fun .def_269 () Bool (and .def_92 .def_268))
(define-fun .def_270 () Bool (and .loc.9 .def_269))
(define-fun .def_271 () Bool (and .loc.10 .def_270))
(define-fun .def_272 () Bool (and .def_97 .def_271))
(define-fun .def_273 () Bool (and .def_99 .def_272))
(define-fun .def_274 () Bool (and .def_103 .def_273))
(define-fun .def_275 () Bool (and .def_105 .def_274))
(define-fun .def_277 () Bool (and .def_275 .def_276))
(define-fun .def_679 () Bool (or .def_277 .def_678))
(define-fun .def_245 () Bool (= .def_46 .x.784))
(define-fun .def_243 () Bool (= .def_30 .x.776))
(define-fun .def_242 () Bool (= .def_36 .x.779))
(define-fun .def_244 () Bool (and .def_242 .def_243))
(define-fun .def_246 () Bool (and .def_244 .def_245))
(define-fun .def_680 () Bool (and .def_246 .def_679))
(define-fun .def_232 () Int (* 4 .def_36))
(define-fun .def_235 () Int (+ .def_232 .def_56))
(define-fun .def_236 () (Array Int Int) (store .def_234 .def_235 .def_30))
(define-fun .def_237 () (Array Int (Array Int Int)) (store .def_14 .def_50 .def_236))
(define-fun .def_238 () Bool (= .x.768 .def_237))
(define-fun .def_229 () Bool (<= (- 2147483648) .def_30))
(define-fun .def_226 () Bool (<= .def_30 2147483647))
(define-fun .def_224 () Bool (not .def_223))
(define-fun .def_227 () Bool (and .def_224 .def_226))
(define-fun .def_230 () Bool (and .def_227 .def_229))
(define-fun .def_239 () Bool (and .def_230 .def_238))
(define-fun .def_240 () Bool (or .def_74 .def_239))
(define-fun .def_217 () Int (* (- 1) .x.779))
(define-fun .def_218 () Int (+ .def_36 .def_217))
(define-fun .def_219 () Bool (= .def_218 (- 1)))
(define-fun .def_220 () Bool (or H1_23 .def_219))
(define-fun .def_177 () Bool (and .def_175 .def_176))
(define-fun .def_179 () Bool (and .def_177 .def_178))
(define-fun .def_180 () Bool (and .def_87 .def_179))
(define-fun .def_182 () Bool (and .def_180 .def_181))
(define-fun .def_184 () Bool (and .def_182 .def_183))
(define-fun .def_186 () Bool (and .def_184 .def_185))
(define-fun .def_188 () Bool (and .def_186 .def_187))
(define-fun .def_190 () Bool (and .def_188 .def_189))
(define-fun .def_192 () Bool (and .def_190 .def_191))
(define-fun .def_194 () Bool (and .def_192 .def_193))
(define-fun .def_196 () Bool (and .def_194 .def_195))
(define-fun .def_198 () Bool (and .def_196 .def_197))
(define-fun .def_200 () Bool (and .def_198 .def_199))
(define-fun .def_201 () Bool (and .def_89 .def_200))
(define-fun .def_203 () Bool (and .def_201 .def_202))
(define-fun .def_205 () Bool (and .def_203 .def_204))
(define-fun .def_206 () Bool (and .def_78 .def_205))
(define-fun .def_208 () Bool (and .def_206 .def_207))
(define-fun .def_209 () Bool (and .def_92 .def_208))
(define-fun .def_210 () Bool (and .loc.10 .def_209))
(define-fun .def_211 () Bool (and .def_95 .def_210))
(define-fun .def_212 () Bool (and .def_97 .def_211))
(define-fun .def_213 () Bool (and .def_99 .def_212))
(define-fun .def_214 () Bool (and .def_103 .def_213))
(define-fun .def_215 () Bool (and .def_105 .def_214))
(define-fun .def_221 () Bool (and .def_215 .def_220))
(define-fun .def_241 () Bool (and .def_221 .def_240))
(define-fun .def_681 () Bool (or .def_241 .def_680))
(define-fun .def_168 () Bool (= .def_26 .x.774))
(define-fun .def_166 () Bool (= .def_18 .x.770))
(define-fun .def_165 () Bool (= .def_22 .x.772))
(define-fun .def_167 () Bool (and .def_165 .def_166))
(define-fun .def_169 () Bool (and .def_167 .def_168))
(define-fun .def_682 () Bool (and .def_169 .def_681))
(define-fun .def_160 () Bool (= .x.774 0))
(define-fun .def_159 () Bool (= .x.770 0))
(define-fun .def_161 () Bool (and .def_159 .def_160))
(define-fun .def_157 () (Array Int Int) (store .def_10 0 0))
(define-fun .def_158 () Bool (= .def_108 .def_157))
(define-fun .def_162 () Bool (and .def_158 .def_161))
(define-fun .def_163 () Bool (or .def_74 .def_162))
(define-fun .def_139 () Bool (<= .x.765 .x.786))
(define-fun .def_140 () Bool (not .def_139))
(define-fun .def_137 () Bool (<= .x.765 .x.778))
(define-fun .def_138 () Bool (not .def_137))
(define-fun .def_141 () Bool (and .def_138 .def_140))
(define-fun .def_135 () Bool (<= .x.765 .x.793))
(define-fun .def_136 () Bool (not .def_135))
(define-fun .def_142 () Bool (and .def_136 .def_141))
(define-fun .def_134 () Bool (= .x.777 0))
(define-fun .def_143 () Bool (and .def_134 .def_142))
(define-fun .def_133 () Bool (= .x.779 0))
(define-fun .def_144 () Bool (and .def_133 .def_143))
(define-fun .def_132 () Bool (= .x.792 0))
(define-fun .def_145 () Bool (and .def_132 .def_144))
(define-fun .def_131 () Bool (= .x.789 0))
(define-fun .def_146 () Bool (and .def_131 .def_145))
(define-fun .def_129 () Bool (= .x.778 0))
(define-fun .def_130 () Bool (not .def_129))
(define-fun .def_147 () Bool (and .def_130 .def_146))
(define-fun .def_127 () Bool (= .x.786 0))
(define-fun .def_128 () Bool (not .def_127))
(define-fun .def_148 () Bool (and .def_128 .def_147))
(define-fun .def_125 () Bool (= .x.793 0))
(define-fun .def_126 () Bool (not .def_125))
(define-fun .def_149 () Bool (and .def_126 .def_148))
(define-fun .def_123 () Int (select .def_108 .x.786))
(define-fun .def_124 () Bool (= .def_123 0))
(define-fun .def_150 () Bool (and .def_124 .def_149))
(define-fun .def_109 () (Array Int Int) (store .def_108 .x.786 1))
(define-fun .def_121 () Int (select .def_109 .x.793))
(define-fun .def_122 () Bool (= .def_121 0))
(define-fun .def_151 () Bool (and .def_122 .def_150))
(define-fun .def_110 () (Array Int Int) (store .def_109 .x.793 1))
(define-fun .def_119 () Int (select .def_110 .x.778))
(define-fun .def_120 () Bool (= .def_119 0))
(define-fun .def_152 () Bool (and .def_120 .def_151))
(define-fun .def_114 () (Array Int Int) (store .def_22 .x.786 400000))
(define-fun .def_115 () (Array Int Int) (store .def_114 .x.793 400000))
(define-fun .def_116 () (Array Int Int) (store .def_115 .x.778 400000))
(define-fun .def_117 () Bool (= .x.772 .def_116))
(define-fun .def_153 () Bool (and .def_117 .def_152))
(define-fun .def_111 () (Array Int Int) (store .def_110 .x.778 1))
(define-fun .def_112 () Bool (= .x.766 .def_111))
(define-fun .def_154 () Bool (and .def_112 .def_153))
(define-fun .def_155 () Bool (or H1_23 .def_154))
(define-fun .def_86 () Bool (and .def_84 .def_85))
(define-fun .def_88 () Bool (and .def_86 .def_87))
(define-fun .def_90 () Bool (and .def_88 .def_89))
(define-fun .def_91 () Bool (and .def_76 .def_90))
(define-fun .def_93 () Bool (and .def_91 .def_92))
(define-fun .def_94 () Bool (and .loc.10 .def_93))
(define-fun .def_96 () Bool (and .def_94 .def_95))
(define-fun .def_98 () Bool (and .def_96 .def_97))
(define-fun .def_100 () Bool (and .def_98 .def_99))
(define-fun .def_102 () Bool (and .def_100 .def_101))
(define-fun .def_104 () Bool (and .def_102 .def_103))
(define-fun .def_106 () Bool (and .def_104 .def_105))
(define-fun .def_156 () Bool (and .def_106 .def_155))
(define-fun .def_164 () Bool (and .def_156 .def_163))
(define-fun .def_683 () Bool (or .def_164 .def_682))
(define-fun .def_695 () Bool (! (and .def_683 .def_694) :trans true))
(define-fun .def_711 () Bool (and .def_101 .def_207))
(define-fun .def_712 () Bool (and .def_80 .def_711))
(define-fun .def_713 () Bool (and .def_82 .def_712))
(define-fun .def_714 () Bool (and .def_74 .def_713))
(define-fun .def_715 () Bool (! (not .def_714) :invar-property 0))
(assert true)
